
Gurobi 10.0.0 (win64) logging started Fri Nov 17 17:47:00 2023

Set parameter LogFile to value "C:\Users\ealvarezq\Documents\GitHub\Comillas\Models\JointResearch\05. Models\06.Benchmarking\D.Representative_days_based_on_RES_and_Demand\IEEE118_ByStages_nc20/openStarNet_IEEE118_ByStages_nc20.log"
Set parameter Method to value 2
Set parameter MIPFocus to value 1
Set parameter Presolve to value 2
Set parameter RINS to value 100
Set parameter MIPGap to value 0.01
Set parameter Threads to value 9
Set parameter TimeLimit to value 604800
Set parameter IterationLimit to value 760000000
Gurobi Optimizer version 10.0.0 build v10.0.0rc2 (win64)

CPU model: Intel(R) Core(TM) i7-8700 CPU @ 3.20GHz, instruction set [SSE2|AVX|AVX2]
Thread count: 6 physical cores, 12 logical processors, using up to 9 threads

Optimize a model with 34423 rows, 25003 columns and 89483 nonzeros
Model fingerprint: 0x565592f5
Variable types: 24955 continuous, 48 integer (48 binary)
Coefficient statistics:
  Matrix range     [5e-03, 1e+04]
  Objective range  [1e+00, 1e+00]
  Bounds range     [9e-05, 4e+01]
  RHS range        [1e-04, 4e+01]
Presolve removed 23228 rows and 12495 columns
Presolve time: 0.16s
Presolved: 11195 rows, 12508 columns, 40121 nonzeros
Variable types: 12461 continuous, 47 integer (47 binary)
Found heuristic solution: objective 16012.952204
Root relaxation presolved: 11195 rows, 12508 columns, 40121 nonzeros

Root barrier log...

Ordering time: 0.22s

Barrier statistics:
 AA' NZ     : 2.117e+05
 Factor NZ  : 1.512e+06 (roughly 20 MB of memory)
 Factor Ops : 4.738e+08 (less than 1 second per iteration)
 Threads    : 9

                  Objective                Residual
Iter       Primal          Dual         Primal    Dual     Compl     Time
   0   1.40035019e+07 -3.68704755e+08  2.40e+01 2.59e+03  7.30e+04     1s
   1   3.06747460e+06 -1.82958903e+08  4.96e+00 2.73e-10  1.54e+04     1s
   2   4.54548183e+05 -1.28304928e+08  3.72e-01 4.22e-10  4.76e+03     1s
   3   2.64433896e+05 -1.38797733e+07  3.79e-02 2.49e-10  4.78e+02     1s
   4   1.29544007e+05 -1.51067156e+06  2.47e-03 3.22e-11  5.32e+01     1s
   5   4.63205918e+04 -3.96527123e+05  6.82e-04 1.26e-11  1.43e+01     1s
   6   1.04979396e+04 -6.98704817e+04  5.78e-05 8.07e-12  2.60e+00     1s
   7   4.64716005e+03 -2.66792357e+04  8.48e-06 7.12e-12  1.01e+00     1s
   8   2.47329773e+03 -5.52938877e+03  2.09e-06 6.71e-12  2.59e-01     1s
   9   1.11456519e+03 -1.23878510e+03  5.54e-07 1.03e-11  7.61e-02     1s
  10   7.01587283e+02 -2.60759978e+02  2.51e-07 9.16e-12  3.11e-02     1s
  11   5.43377440e+02  1.85361206e+01  1.43e-07 9.76e-12  1.70e-02     1s
  12   4.40508919e+02  1.66554139e+02  6.96e-08 7.38e-12  8.86e-03     1s
  13   3.80431508e+02  2.73345798e+02  2.92e-08 1.34e-11  3.46e-03     1s
  14   3.42713375e+02  3.13230174e+02  5.08e-09 1.16e-11  9.53e-04     1s
  15   3.38245640e+02  3.25099113e+02  2.31e-09 1.02e-11  4.25e-04     1s
  16   3.36544111e+02  3.29139159e+02  1.34e-09 7.51e-12  2.39e-04     1s
  17   3.35016134e+02  3.31076212e+02  4.81e-10 8.09e-12  1.27e-04     1s
  18   3.34469043e+02  3.33347637e+02  1.94e-10 1.61e-11  3.62e-05     1s
  19   3.34136268e+02  3.33866015e+02  4.05e-11 1.14e-11  8.74e-06     1s
  20   3.34076045e+02  3.34044701e+02  2.49e-11 4.66e-12  1.01e-06     1s
  21   3.34050852e+02  3.34050149e+02  2.76e-10 1.32e-11  2.27e-08     1s
  22   3.34050671e+02  3.34050657e+02  1.92e-09 1.41e-11  4.45e-10     1s
  23   3.34050661e+02  3.34050661e+02  2.49e-11 7.38e-12  1.32e-14     1s

Barrier solved model in 23 iterations and 1.07 seconds (0.64 work units)
Optimal objective 3.34050661e+02


Root relaxation: objective 3.340507e+02, 1098 iterations, 0.78 seconds (0.44 work units)

    Nodes    |    Current Node    |     Objective Bounds      |     Work
 Expl Unexpl |  Obj  Depth IntInf | Incumbent    BestBd   Gap | It/Node Time

     0     0  334.05066    0   35 16012.9522  334.05066  97.9%     -    1s
H    0     0                    8264.3333615  334.05066  96.0%     -    1s
H    0     0                    8214.7286320  377.69895  95.4%     -    2s
     0     0  377.69895    0   38 8214.72863  377.69895  95.4%     -    2s
H    0     0                    1027.4917497  377.69895  63.2%     -    2s
     0     0  378.29441    0   38 1027.49175  378.29441  63.2%     -    2s
     0     0  378.42925    0   38 1027.49175  378.42925  63.2%     -    2s
     0     0  378.45228    0   38 1027.49175  378.45228  63.2%     -    2s
H    0     0                    1020.4686196  378.45228  62.9%     -    3s
     0     0  383.09793    0   38 1020.46862  383.09793  62.5%     -    3s
H    0     0                    1005.6720936  383.09793  61.9%     -    3s
     0     0  384.35119    0   37 1005.67209  384.35119  61.8%     -    3s
     0     0  384.41347    0   37 1005.67209  384.41347  61.8%     -    3s
     0     0  384.41347    0   37 1005.67209  384.41347  61.8%     -    3s
     0     0  384.76160    0   36 1005.67209  384.76160  61.7%     -    4s
     0     0  384.91842    0   36 1005.67209  384.91842  61.7%     -    4s
     0     0  384.91842    0   36 1005.67209  384.91842  61.7%     -    4s
     0     0  384.95389    0   36 1005.67209  384.95389  61.7%     -    4s
     0     0  384.95389    0   36 1005.67209  384.95389  61.7%     -    5s
     0     0  384.95601    0   36 1005.67209  384.95601  61.7%     -    5s
H    0     0                     576.1939023  384.95601  33.2%     -   32s
     0     2  384.95601    0   35  576.19390  384.95601  33.2%     -   32s
     7    12  500.23775    3   34  576.19390  403.45268  30.0%   871   35s
   143    94     cutoff   17       576.19390  405.30849  29.7%   320   40s
   383   191  470.36947   10   24  576.19390  416.87344  27.7%   238   45s
   497   235     cutoff   21       576.19390  416.87344  27.7%   227   67s
   634   294  517.40145   11   25  576.19390  436.89644  24.2%   213   70s
   692   304  553.95737   14   23  576.19390  441.25401  23.4%   206   92s
   795   359  554.26833   18   19  576.19390  441.25401  23.4%   198  105s
H  817   359                     572.7548364  441.25401  23.0%   195  105s
   990   425     cutoff   22       572.75484  476.20904  16.9%   186  136s
  1252   503  539.51327   16   19  572.75484  491.23109  14.2%   173  140s
  1571   546  555.35599   15   22  572.75484  500.11303  12.7%   169  145s
  1691   563  561.85316   22   15  572.75484  501.77808  12.4%   167  165s
  1798   580  563.54202   19   18  572.75484  504.16795  12.0%   164  187s
  1894   582  508.20371   18   19  572.75484  504.51223  11.9%   162  224s
  1944   613  516.27399   19   18  572.75484  504.68881  11.9%   162  226s
  2269   599  572.02619   16   21  572.75484  513.02987  10.4%   162  250s
  2484   576  559.53195   28   12  572.75484  518.19771  9.53%   159  273s
  2663   570     cutoff   26       572.75484  521.78041  8.90%   159  287s
  2933   528     cutoff   16       572.75484  524.32774  8.46%   157  290s
  3565   450  567.81055   28   12  572.75484  534.74112  6.64%   151  321s
  3878   389     cutoff   15       572.75484  538.92119  5.91%   148  335s
  4259   339  561.74948    7   30  572.75484  542.03189  5.36%   144  360s
  4738   173  568.56324   17   24  572.75484  550.41809  3.90%   139  381s
  5488    36  569.60454   18   20  572.75484  558.20482  2.54%   129  394s
  5846     0     cutoff   31       572.75484  561.94231  1.89%   124  395s

Cutting planes:
  Gomory: 7
  Implied bound: 28
  MIR: 363
  Relax-and-lift: 1

Explored 5929 nodes (733549 simplex iterations) in 395.34 seconds (524.24 work units)
Thread count was 9 (of 12 available processors)

Solution count 8: 572.755 576.194 1005.67 ... 16013

Optimal solution found (tolerance 1.00e-02)
Best objective 5.727548363856e+02, best bound 5.727548363856e+02, gap 0.0000%

Gurobi 10.0.0 (win64) logging started Fri Nov 17 17:53:39 2023

Set parameter LogFile to value "C:\Users\ealvarezq\Documents\GitHub\Comillas\Models\JointResearch\05. Models\06.Benchmarking\D.Representative_days_based_on_RES_and_Demand\IEEE118_ByStages_nc20/openStarNet_IEEE118_ByStages_nc20.log"
Set parameter Method to value 2
Set parameter MIPFocus to value 1
Set parameter Presolve to value 2
Set parameter RINS to value 100
Set parameter MIPGap to value 0.01
Set parameter Threads to value 9
Set parameter TimeLimit to value 604800
Set parameter IterationLimit to value 760000000
No parameters matching 'relax_integrality' found
Gurobi Optimizer version 10.0.0 build v10.0.0rc2 (win64)

CPU model: Intel(R) Core(TM) i7-8700 CPU @ 3.20GHz, instruction set [SSE2|AVX|AVX2]
Thread count: 6 physical cores, 12 logical processors, using up to 9 threads

Optimize a model with 34423 rows, 24955 columns and 85403 nonzeros
Model fingerprint: 0x080a0dcb
Coefficient statistics:
  Matrix range     [5e-03, 1e+04]
  Objective range  [1e+00, 1e+00]
  Bounds range     [9e-05, 4e+01]
  RHS range        [1e-04, 4e+02]
Presolve removed 26032 rows and 11919 columns
Presolve time: 0.05s
Presolved: 8391 rows, 13099 columns, 31703 nonzeros

Ordering time: 0.00s

Barrier statistics:
 AA' NZ     : 2.815e+04
 Factor NZ  : 1.160e+05 (roughly 10 MB of memory)
 Factor Ops : 1.764e+06 (less than 1 second per iteration)
 Threads    : 9

                  Objective                Residual
Iter       Primal          Dual         Primal    Dual     Compl     Time
   0   1.98436948e+07 -2.89625734e+08  1.40e+02 7.41e+02  4.80e+04     0s
   1   2.83610398e+06 -9.77850526e+07  1.86e+01 2.73e-12  7.31e+03     0s
   2   4.41339252e+05 -2.07500948e+07  1.75e+00 2.73e-12  9.82e+02     0s
   3   1.70620474e+05 -2.82637517e+06  3.77e-02 2.27e-12  1.07e+02     0s
   4   5.75959456e+04 -5.66706063e+05  5.28e-03 1.82e-12  2.19e+01     0s
   5   2.93901176e+04 -2.11882599e+05  2.03e-03 9.09e-13  8.45e+00     0s
   6   1.53950576e+04 -4.96013889e+04  8.46e-04 8.95e-13  2.27e+00     0s
   7   7.14860943e+03 -1.77609330e+04  2.53e-04 1.24e-12  8.71e-01     0s
   8   2.97491910e+03 -2.95377166e+03  5.15e-05 7.77e-13  2.07e-01     0s
   9   1.77704953e+03 -1.36804880e+03  2.43e-05 6.07e-13  1.10e-01     0s
  10   1.24120079e+03 -3.76410607e+02  1.30e-05 8.25e-13  5.65e-02     0s
  11   9.24356383e+02  1.28661811e+02  6.61e-06 6.12e-13  2.78e-02     0s
  12   7.59568064e+02  3.68375626e+02  3.36e-06 9.19e-13  1.37e-02     0s
  13   6.07831104e+02  5.12881376e+02  5.48e-07 8.06e-13  3.32e-03     0s
  14   5.83609404e+02  5.58327719e+02  1.58e-07 7.02e-13  8.84e-04     0s
  15   5.76619504e+02  5.67194812e+02  5.45e-08 6.18e-13  3.29e-04     0s
  16   5.74987451e+02  5.71241632e+02  3.09e-08 9.08e-13  1.31e-04     0s
  17   5.73759927e+02  5.72377979e+02  1.39e-08 8.31e-13  4.83e-05     0s
  18   5.73063781e+02  5.72695098e+02  4.14e-09 7.27e-13  1.29e-05     0s
  19   5.72768824e+02  5.72744040e+02  5.22e-09 1.21e-12  8.66e-07     0s
  20   5.72755035e+02  5.72754717e+02  3.13e-09 1.00e-12  1.11e-08     0s
  21   5.72754837e+02  5.72754836e+02  1.90e-09 1.06e-12  1.11e-11     0s

Barrier solved model in 21 iterations and 0.18 seconds (0.13 work units)
Optimal objective 5.72754837e+02

Crossover log...

    2289 DPushes remaining with DInf 0.0000000e+00                 0s
       0 DPushes remaining with DInf 0.0000000e+00                 0s

     192 PPushes remaining with PInf 0.0000000e+00                 0s
       0 PPushes remaining with PInf 0.0000000e+00                 0s

  Push phase complete: Pinf 0.0000000e+00, Dinf 1.1375910e-12      0s

Iteration    Objective       Primal Inf.    Dual Inf.      Time
     373    5.7275484e+02   0.000000e+00   0.000000e+00      0s

Solved in 373 iterations and 0.25 seconds (0.15 work units)
Optimal objective  5.727548364e+02
